33D32945 STP File, STP Format Version 1.0

SECTION Comments
Name "edge_n12_d2_s8"
Problem "Euclidean Steiner Tree Problem"
Remark "Generated with STPGenerator. 2 dimensions."
END

SECTION Graph
Nodes 12
END

SECTION Coordinates
DD 0 0.3527607286 0.3527607286
DD 1 0.7895895954 0.7895895954
DD 2 0.9058258696 0.9058258696
DD 3 0.0438874350 0.0438874350
DD 4 0.9542649202 0.9542649202
DD 5 0.2482710840 0.2482710840
DD 6 0.8679820145 0.8679820145
DD 7 0.8387081427 0.8387081427
DD 8 0.9220907362 0.9220907362
DD 9 0.6533997663 0.6533997663
DD 10 0.5500675400 0.5500675400
DD 11 0.2691321919 0.2691321919
END
